82
1 0
2 6
3 12
4 18
5 24
6 30
7 18
8 25
9 32
10 41
11 50
12 32
13 41
14 50
15 59
16 68
17 40
18 49
19 58
20 67
21 76
----------
==========
%%%mzn-stat initTime=0.001726
%%%mzn-stat solveTime=0.056874
%%%mzn-stat solutions=4
%%%mzn-stat variables=291
%%%mzn-stat propagators=200
%%%mzn-stat propagations=124332
%%%mzn-stat nodes=1545
%%%mzn-stat failures=760
%%%mzn-stat restarts=0
%%%mzn-stat peakDepth=23
%%%mzn-stat-end
